language ESSENCE' 1.0
letting avatarInitRow be 4
letting avatarInitCol be 3
letting numBlocks be 1
letting blocksInitRow be [4]
letting blocksInitCol be [4]
letting blocksGoalRow be [5]
letting blocksGoalCol be [5]
letting steps be 4
letting gridInit be [[0, 0, 0, 0, 0, 0],
                     [0, 0, 0, 0, 0, 0],
                     [0, 0, 0, 1, 1, 0],
                     [0, 0, 2, 2, 1, 0],
                     [0, 0, 0, 0, 2, 0],
                     [0, 0, 0, 0, 0, 0]]
